p cnf 13 49
-3 6 12 0
1 5 8 0
-2 7 -9 0
-3 -4 13 0
2 -4 -11 0
2 5 -10 0
4 7 13 0
3 -10 -12 0
4 -7 -12 0
7 -8 -13 0
-5 6 -9 0
5 -7 10 0
-1 -3 4 0
5 10 11 0
-6 -7 -12 0
2 -6 10 0
1 -3 -13 0
1 -10 -12 0
-3 5 -10 0
4 -5 8 0
1 8 12 0
-1 -7 8 0
8 -10 -11 0
5 8 10 0
-4 -5 -8 0
2 4 -9 0
6 7 8 0
-4 -8 9 0
7 -9 11 0
2 9 10 0
10 11 12 0
-5 9 -13 0
3 -5 11 0
-4 11 -13 0
-2 -6 -7 0
5 -8 9 0
-6 12 13 0
1 -2 11 0
-2 5 8 0
-1 -6 -13 0
-2 -3 8 0
9 10 12 0
9 10 -13 0
-5 10 11 0
-3 10 13 0
-6 8 -10 0
-1 2 9 0
3 -7 -12 0
-5 -7 -13 0
